c --- [ banner ] -------------------------------------------------------------
c 
c CaDiCaL SAT Solver
c Copyright (c) 2016-2023 A. Biere, M. Fleury, N. Froleyks, K. Fazekas, F. Pollitt
c 
c Version 1.9.5
c g++ (Ubuntu 11.4.0-1ubuntu1~22.04) 11.4.0 -Wall -Wextra -O3 -DNDEBUG -static
c Thu Mar 7 06:16:21 CET 2024 Linux pc101447 6.5.0-17-generic x86_64
c 
c --- [ limit ] --------------------------------------------------------------
c 
c setting time limit to 3600 seconds real time (due to '-t 3600')
c 
c --- [ parsing input ] ------------------------------------------------------
c 
c reading DIMACS file from '/home/oliveras/SAT-comp-2023//01bd0865ab694bc71d80b7d285d5777d-shuffling-2-s1480152728-of-bench-sat04-434.used-as.sat04-711.cnf'
c opening file to read '/home/oliveras/SAT-comp-2023//01bd0865ab694bc71d80b7d285d5777d-shuffling-2-s1480152728-of-bench-sat04-434.used-as.sat04-711.cnf'
c found 'p cnf 505536 1596837' header
c parsed 1596837 clauses in 1.31 seconds process time
c 
c --- [ options ] ------------------------------------------------------------
c 
c   --seed=1                       (different from default '0')
c 
c --- [ solving ] ------------------------------------------------------------
c 
c time measured in process time since initialization
c 
c  seconds   reductions  redundant   irredundant
c          MB    restarts       trail        variables
c           level   conflicts       glue           remaining
c 
c *  1.31 253  0 0   0    0    0  0% 0 1595120 483259 96%
c {  1.42 257  0 0   0    0    0  0% 0 1595120 483259 96%
c -  2.16 258 46 1  10  300  278 24% 2 1518954 483259 96%
c i  2.95 259 80 1  36  615  573 25% 2 1518954 483076 96%
c i  2.96 259 80 1  36  617  574 25% 2 1518954 483061 96%
c i  3.56 260 103 1  51  904  850 27% 2 1518954 483048 96%
c i  3.56 260 103 1  51  905  850 27% 2 1518954 483044 96%
c i  3.56 260 102 1  51  906  850 27% 2 1518954 483043 96%
c i  3.60 260 101 1  52  920  863 27% 2 1518954 483042 96%
c i  3.61 260 100 1  52  928  868 27% 2 1518954 483038 96%
c i  3.62 261 99 1  52  940  875 27% 2 1518954 481512 95%
c i  3.64 261 99 1  52  945  879 27% 2 1518954 481496 95%
c i  3.64 261 95 1  52  984  912 26% 2 1518954 481489 95%
c i  3.65 261 94 1  52  996  922 26% 2 1518954 481487 95%
c }  3.65 261 94 1  52 1001  927 26% 2 1518954 481487 95%
c [  3.65 261  0 1  52 1001  927  0% 0 1518954 481487 95%
c O  3.65 261  1 1  52 1002  927 13% 0 1518954 481487 95%
c i  3.65 261  1 1  52 1002  927 13% 0 1518954 481481 95%
c i  3.65 261  1 1  52 1003  927 13% 0 1518954 481475 95%
c i  3.65 261  1 1  52 1004  927 13% 0 1518954 481469 95%
c 
c  seconds   reductions  redundant   irredundant
c          MB    restarts       trail        variables
c           level   conflicts       glue           remaining
c 
c i  3.66 261  1 1  52 1005  927 13% 0 1518954 481463 95%
c -  4.93 323 139 2  52 1609 1454 36% 14 1513011 481463 95%
c ]  5.71 323 187 2  53 3001 2747 42% 8 1513011 481463 95%
c {  5.71 323 94 2  53 3001 2747 26% 2 1513011 481463 95%
c F  5.73 323 94 2  53 3003 2749 26% 2 1513011 481463 95%
c i  5.73 323 94 2  53 3004 2749 26% 2 1513011 481461 95%
c i  5.73 323 93 2  53 3014 2756 25% 2 1513011 481399 95%
c i  5.73 323 93 2  53 3015 2756 25% 2 1513011 481398 95%
c i  5.89 323 97 2  53 3304 3035 29% 2 1513011 481390 95%
c i  5.93 323 98 2  53 3337 3066 29% 2 1513011 481381 95%
c s  7.46 301 104 2  67 3446 3142 30% 2 1512971 481381 95%
c v  8.96 340 104 2  67 3446 3142 30% 2 1512754 481381 95%
c t  9.65 340 104 2  67 3446 3139 30% 2 1512708 481064 95%
c e 15.07 375 104 2  67 3446  331 30% 2 536112 91487 18%
c s 15.46 379 104 2  67 3446  318 30% 2 527828 91487 18%
c e 15.89 380 104 2  67 3446  318 30% 2 518419 88748 18%
c - 16.69 349 104 3 104 3572  415 16% 2 518419 88748 18%
c i 16.83 349 96 3 177 3869  688 13% 2 518419 88746 18%
c i 16.88 349 94 3 203 3967  779 12% 2 518419 88733 18%
c i 16.90 349 93 3 213 4005  811 13% 2 518419 88727 18%
c 
c  seconds   reductions  redundant  irredundant
c          MB    restarts       trail       variables
c           level   conflicts       glue         remaining
c 
c i 16.90 349 93 3 214 4007  812 13% 2 518419 88723 18%
c i 16.91 349 93 3 214 4009  813 13% 2 518419 88721 18%
c i 16.91 349 92 3 221 4029  832 12% 2 518419 88715 18%
c i 16.98 349 91 3 274 4214  996 11% 3 518419 88714 18%
c i 17.01 349 89 3 304 4341 1109 10% 3 518419 88687 18%
c i 17.03 349 87 3 333 4446 1203 10% 3 518419 88682 18%
c i 17.03 349 86 3 333 4447 1203 10% 3 518419 88678 18%
c i 17.11 349 84 3 366 4772 1488 10% 3 518417 88676 18%
c i 17.13 349 84 3 367 4803 1510 10% 3 518417 88673 18%
c i 17.16 349 83 3 387 4888 1589 10% 3 518417 88672 18%
c i 17.17 349 82 3 395 4918 1617 10% 3 518417 88668 18%
c d 17.29 349 82 3 412 5000 1660 11% 3 516947 88641 18%
c d 17.35 349 82 3 412 5000 1660 11% 3 516856 88614 18%
c 3 17.61 349 82 3 412 5000 82879 11% 3 516791 88614 18%
c 3 17.73 349 82 3 412 5000 104058 11% 3 516791 88614 18%
c d 17.93 349 82 3 412 5000 103932 11% 3 516757 88585 18%
c 2 18.01 349 82 3 412 5000 103931 11% 3 516678 88498 18%
c p 18.44 349 82 3 412 5000 521512 11% 3 516678 88336 17%
c d 18.58 349 82 3 412 5000 519623 11% 3 514080 88264 17%
c d 18.70 349 82 3 412 5000 519522 11% 3 513908 88211 17%
c 
c  seconds   reductions  redundant  irredundant
c          MB    restarts       trail       variables
c           level   conflicts       glue         remaining
c 
c - 19.26 349 80 4 547 5631 3147 12% 3 513908 88211 17%
c i 19.38 349 79 4 582 5886 3377 13% 3 513908 88165 17%
c # 19.43 349 78 4 596 6004 3486 13% 3 513908 88165 17%
c i 19.43 349 78 4 596 6004 3486 13% 3 513908 88101 17%
c } 19.75 349 83 4 719 7004 4392 15% 3 513904 88101 17%
c [ 19.75 349 187 4 719 7004 4392 241% 8 513904 88101 17%
c i 19.81 349 191 4 720 7289 4654 215% 7 513903 88100 17%
c - 20.54 349 225 5 720 8197 4641 160% 11 511739 88100 17%
c I 21.50 349 213 5 721 10008 6217 109% 10 511739 88100 17%
c i 21.72 349 199 5 722 10436 6533 101% 10 511739 88099 17%
c i 21.73 349 199 5 722 10440 6534 101% 10 511739 88098 17%
c i 21.74 349 199 5 722 10444 6535 101% 10 511739 88097 17%
c i 21.75 349 198 5 722 10448 6536 101% 10 511739 88096 17%
c i 21.76 349 198 5 722 10452 6537 101% 10 511739 88095 17%
c i 21.77 349 198 5 722 10456 6538 101% 10 511739 88094 17%
c i 21.78 349 198 5 722 10460 6539 101% 10 511739 88093 17%
c i 21.79 349 198 5 722 10465 6540 101% 10 511739 88092 17%
c i 21.81 349 197 5 722 10474 6545 101% 10 511739 88091 17%
c i 21.82 349 197 5 722 10479 6547 100% 10 511739 88090 17%
c i 21.83 349 197 5 722 10483 6548 100% 10 511739 88089 17%
c 
c  seconds    reductions   redundant    irredundant
c          MB     restarts        trail         variables
c            level    conflicts        glue          remaining
c 
c i 21.84 349 197 5 722 10489 6551 100% 10 511739 88088 17%
c - 22.16 349 194 6 722 11273 6430 97% 9 510647 88088 17%
c s 23.55 349 161 6 724 13632 8203 75% 9 503878 88088 17%
c v 24.06 349 161 6 724 13632 8203 75% 9 503220 88088 17%
c w 24.19 349 161 6 724 13632 8195 75% 9 503220 88028 17%
c t 24.31 349 161 6 724 13632 8195 75% 9 502647 88015 17%
c e 24.74 351 161 6 724 13632 6516 75% 9 484530 84397 17%
c s 24.87 351 161 6 724 13632 6396 75% 9 483141 84397 17%
c e 25.13 351 161 6 724 13632 6312 75% 9 480666 83814 17%
c - 25.61 351 146 7 724 14862 6549 66% 9 480666 83814 17%
c d 25.71 351 145 7 724 15000 6662 66% 9 480351 83649 17%
c 3 25.94 351 145 7 724 15000 74834 66% 9 480260 83649 17%
c 3 26.09 351 145 7 724 15000 114008 66% 9 480260 83649 17%
c d 26.26 351 145 7 724 15000 113956 66% 9 480206 83633 17%
c 2 26.34 351 145 7 724 15000 113938 66% 9 479599 83610 17%
c p 26.67 351 145 7 724 15000 355792 66% 9 479599 83279 16%
c d 26.79 351 145 7 724 15000 343261 66% 9 476626 83174 16%
c d 26.89 351 145 7 724 15000 342662 66% 9 475115 82802 16%
c ] 26.90 351 145 7 724 15004 342666 66% 9 475115 82802 16%
c { 26.90 351 83 7 724 15004 342666 15% 3 475115 82802 16%
c 
c  seconds   reductions    redundant   irredundant
c          MB    restarts          trail       variables
c           level    conflicts         glue         remaining
c 
c B 26.95 351 83 7 726 15016 342674 15% 3 475115 82802 16%
c i 27.19 351 82 7 793 15395 343017 15% 4 475115 82790 16%
c i 27.20 351 81 7 793 15396 343017 15% 3 475115 73262 14%
c i 27.73 263 80 7 820 15529 306422 18% 4 390522 73254 14%
c i 27.80 263 81 7 838 15597 306482 21% 4 390522 73051 14%
c i 27.87 263 82 7 846 15633 306514 24% 4 390522 73042 14%
c i 27.92 263 81 7 876 15750 306618 20% 4 390522 73019 14%
c i 27.92 263 81 7 876 15756 306623 20% 4 390522 73015 14%
c i 28.07 263 81 7 921 15996 306842 21% 4 390522 73012 14%
c i 28.07 263 81 7 921 15999 306843 21% 4 390522 72829 14%
c i 28.07 263 81 7 921 16003 306846 21% 4 390522 72797 14%
c i 28.16 263 81 7 930 16263 307037 32% 4 390520 72768 14%
c i 28.29 263 80 7 964 16428 307171 30% 4 390519 72766 14%
c i 28.29 263 80 7 964 16429 307171 30% 4 390519 72764 14%
c i 28.30 263 80 7 965 16430 307171 30% 4 390519 72762 14%
c i 28.30 263 80 7 965 16431 307171 30% 4 390519 72760 14%
c i 28.30 263 80 7 965 16432 307171 30% 4 390519 72758 14%
c i 28.30 263 80 7 966 16433 307171 30% 4 390519 72756 14%
c i 28.30 263 80 7 966 16434 307171 30% 4 390519 72754 14%
c i 28.30 263 80 7 966 16435 307171 30% 4 390519 72752 14%
c 
c  seconds   reductions    redundant   irredundant
c          MB    restarts          trail       variables
c           level    conflicts         glue         remaining
c 
c i 28.30 263 80 7 967 16436 307171 30% 4 390519 72750 14%
c i 28.30 263 80 7 967 16437 307171 30% 4 390519 72748 14%
c i 28.30 263 80 7 967 16438 307171 30% 4 390519 72746 14%
c i 28.30 263 80 7 968 16439 307171 30% 4 390519 72744 14%
c i 28.30 263 80 7 968 16440 307171 29% 4 390519 72742 14%
c i 28.31 263 80 7 968 16441 307171 29% 4 390519 72740 14%
c i 28.31 263 80 7 969 16442 307171 29% 4 390519 72738 14%
c i 28.31 263 80 7 969 16443 307171 29% 4 390519 72736 14%
c i 28.31 263 80 7 969 16444 307171 29% 4 390519 72734 14%
c i 28.31 263 80 7 970 16445 307171 29% 4 390519 72732 14%
c i 28.31 263 80 7 970 16446 307171 29% 4 390519 72730 14%
c i 28.31 263 80 7 970 16447 307171 29% 4 390519 72728 14%
c i 28.31 263 80 7 971 16448 307171 29% 4 390519 72726 14%
c i 28.31 263 80 7 971 16449 307171 29% 4 390519 72724 14%
c i 28.31 263 80 7 971 16450 307171 29% 4 390519 72722 14%
c i 28.31 263 80 7 972 16451 307171 29% 4 390519 72720 14%
c i 28.32 263 80 7 972 16452 307171 29% 4 390519 72718 14%
c i 28.32 263 80 7 972 16453 307171 29% 4 390519 72716 14%
c i 28.32 263 80 7 972 16454 307171 29% 4 390519 72714 14%
c i 28.55 263 78 7 1034 17102 307764 27% 4 390519 72712 14%
c 
c  seconds   reductions     redundant   irredundant
c          MB    restarts           trail       variables
c           level     conflicts         glue         remaining
c 
c i 28.55 263 78 7 1034 17103 307764 27% 4 390519 72711 14%
c i 28.93 263 80 7 1097 18032 308571 27% 6 390519 72710 14%
c i 28.93 263 80 7 1099 18040 308576 27% 6 390519 72693 14%
c i 28.97 263 80 7 1106 18064 308598 27% 6 390519 72306 14%
c i 28.97 263 80 7 1106 18066 308599 27% 6 390519 72274 14%
c i 28.97 263 80 7 1107 18067 308599 27% 6 390519 72270 14%
c - 29.40 278 77 8 1145 18902 30311 30% 6 376034 72270 14%
c W 30.36 278 89 8 1273 21017 32194 33% 6 376034 72270 14%
c i 30.66 278 88 8 1294 21548 32665 32% 6 376034 72252 14%
c i 31.21 278 86 8 1368 22567 33500 32% 6 376034 72244 14%
c i 31.21 278 85 8 1369 22571 33503 32% 6 376034 72207 14%
c i 31.41 278 88 8 1380 23019 33900 33% 6 376034 72206 14%
c i 31.41 278 88 8 1380 23021 33901 33% 6 376034 72205 14%
c i 31.41 278 88 8 1380 23023 33902 33% 6 376034 72204 14%
c i 31.42 278 88 8 1380 23027 33905 33% 6 376034 72203 14%
c i 31.42 278 88 8 1380 23032 33908 33% 6 376034 72202 14%
c i 31.42 278 88 8 1380 23036 33911 33% 6 376034 72201 14%
c i 31.42 278 88 8 1380 23038 33912 33% 6 376034 72200 14%
c i 31.43 278 88 8 1380 23044 33917 33% 6 376034 72199 14%
c i 31.43 278 88 8 1380 23046 33918 33% 6 376034 72198 14%
c 
c  seconds   reductions     redundant  irredundant
c          MB    restarts          trail       variables
c           level     conflicts        glue         remaining
c 
c i 31.43 278 88 8 1380 23049 33920 33% 6 376034 72197 14%
c i 31.43 278 88 8 1380 23051 33921 33% 6 376034 72196 14%
c i 31.44 278 88 8 1380 23053 33922 33% 6 376034 72195 14%
c i 31.44 278 88 8 1380 23055 33923 33% 6 376034 72194 14%
c i 31.44 278 88 8 1380 23057 33924 33% 6 376034 72193 14%
c i 31.44 278 88 8 1380 23059 33925 33% 6 376034 72192 14%
c i 31.44 278 88 8 1380 23061 33926 33% 6 376034 72191 14%
c i 31.45 278 88 8 1380 23063 33927 33% 6 376034 72190 14%
c i 31.45 278 88 8 1380 23065 33928 33% 6 376034 72189 14%
c i 31.45 278 88 8 1380 23067 33929 33% 6 376034 72188 14%
c i 31.45 278 88 8 1380 23069 33930 33% 6 376034 72187 14%
c i 31.45 278 87 8 1380 23071 33931 33% 6 376034 72186 14%
c i 31.46 278 87 8 1380 23073 33932 33% 6 376034 72185 14%
c i 31.46 278 87 8 1380 23075 33933 33% 6 376034 72184 14%
c i 31.46 278 87 8 1380 23077 33934 33% 6 376034 72183 14%
c i 31.46 278 87 8 1380 23079 33935 33% 6 376034 72182 14%
c i 31.46 278 87 8 1380 23081 33936 33% 6 376034 72181 14%
c i 31.46 278 87 8 1380 23082 33936 33% 6 376034 72157 14%
c i 31.46 278 87 8 1380 23084 33937 33% 6 376034 72156 14%
c i 31.46 278 87 8 1380 23086 33938 33% 6 376034 72151 14%
c 
c  seconds   reductions     redundant  irredundant
c          MB    restarts          trail       variables
c           level     conflicts        glue         remaining
c 
c i 31.48 278 87 8 1380 23125 33970 33% 6 376034 72146 14%
c - 31.57 278 87 9 1380 23155 14858 33% 6 372169 72146 14%
c i 31.58 278 87 9 1380 23176 14875 32% 6 372169 72145 14%
c i 31.59 278 87 9 1380 23194 14885 32% 6 372169 72144 14%
c i 31.59 278 87 9 1380 23197 14887 32% 6 372169 72143 14%
c i 31.59 278 87 9 1380 23199 14888 32% 6 372169 72142 14%
c i 31.59 278 87 9 1380 23210 14891 32% 6 372169 72136 14%
c i 31.62 278 86 9 1380 23279 14949 32% 6 372169 69513 14%
c i 31.77 278 86 9 1391 23432 15024 32% 6 372169 69511 14%
c i 31.81 278 86 9 1402 23484 15070 32% 6 372169 69496 14%
c i 32.08 278 83 9 1411 23997 15471 32% 6 372169 69481 14%
c i 32.08 278 83 9 1411 23998 15471 32% 6 372169 69477 14%
c i 32.13 278 83 9 1413 24068 15528 32% 6 372169 69474 14%
c i 32.78 278 79 9 1488 25810 17030 33% 6 372169 69473 14%
c i 32.79 278 79 9 1488 25849 17065 33% 6 372169 69472 14%
c i 33.11 278 79 9 1548 26686 17785 34% 6 372169 69468 14%
c i 33.11 278 79 9 1548 26691 17786 34% 6 372169 69463 14%
c i 33.12 278 79 9 1548 26699 17792 34% 6 372169 69460 14%
c i 33.48 278 77 9 1591 27589 18559 34% 6 372169 69457 14%
c - 33.77 278 76 10 1637 27869 14225 35% 6 337603 69457 14%
c 
c  seconds   reductions      redundant  irredundant
c          MB     restarts          trail       variables
c           level      conflicts        glue         remaining
c 
c i 33.79 278 76 10 1639 27913 14257 35% 6 337603 69456 14%
c i 33.86 278 76 10 1649 27979 14320 35% 6 337603 69454 14%
c F 33.88 278 76 10 1653 28018 14347 35% 6 337603 69454 14%
c i 33.88 278 76 10 1653 28019 14347 35% 6 337603 69453 14%
c i 33.89 278 76 10 1654 28058 14379 35% 6 337603 48296 10%
c s 34.42 278 74 10 1694 28751 12344 21% 6 228801 48296 10%
c v 34.67 278 74 10 1694 28751 12344 21% 6 228575 48296 10%
c w 34.71 278 74 10 1694 28751 12340 21% 6 228575 48296 10%
c t 34.92 278 74 10 1694 28751 12142 21% 6 224876 46387  9%
c e 35.27 280 74 10 1694 28751 7929 21% 6 159388 26643  5%
c s 35.32 280 74 10 1694 28751 7808 21% 6 158353 26643  5%
c e 35.40 280 74 10 1694 28751 7667 21% 6 156780 26221  5%
c i 35.44 280 74 10 1699 28834 7741 21% 6 156780 26215  5%
c i 35.59 280 73 10 1823 29530 8364 20% 6 156780 26214  5%
c i 35.59 280 73 10 1823 29534 8364 20% 6 156780 26210  5%
c i 35.61 280 72 10 1823 29727 8527 19% 6 156780 26209  5%
c i 35.65 280 72 10 1847 29970 8744 19% 6 156780 25394  5%
c i 35.65 280 72 10 1847 29971 8744 19% 6 156780 25356  5%
c d 35.68 280 71 10 1849 30000 8316 19% 6 148819 25312  5%
c d 35.70 280 71 10 1849 30000 8298 19% 6 147268 24600  5%
c 
c  seconds   reductions      redundant  irredundant
c          MB     restarts          trail       variables
c           level      conflicts        glue         remaining
c 
c 3 35.77 280 71 10 1849 30000 38669 19% 6 147225 24600  5%
c 3 35.81 280 71 10 1849 30000 46936 19% 6 147225 24600  5%
c d 35.86 280 71 10 1849 30000 46900 19% 6 147177 24580  5%
c 2 35.88 280 71 10 1849 30000 46880 19% 6 147077 24437  5%
c p 36.11 280 71 10 1849 30000 123832 19% 6 147077 22607  4%
c d 36.15 280 71 10 1849 30000 102577 19% 6 129394 22011  4%
c d 36.17 280 71 10 1849 30000 101684 19% 6 126597 21400  4%
c } 36.39 280 69 10 1942 31004 102564 21% 6 126597 21400  4%
c [ 36.39 280 145 10 1942 31004 102564 120% 9 126597 21400  4%
c i 36.39 280 145 10 1942 31005 102564 120% 9 126597 21396  4%
c i 36.39 280 144 10 1942 31006 102564 120% 9 126597 21392  4%
c i 36.39 280 144 10 1942 31007 102564 120% 9 126597 21388  4%
c i 36.39 280 144 10 1942 31008 102564 120% 9 126597 21387  4%
c i 36.39 280 144 10 1942 31009 102564 120% 9 126597 21386  4%
c i 36.39 280 144 10 1942 31010 102564 120% 9 126597 21377  4%
c i 36.39 280 144 10 1942 31011 102564 120% 9 126597 21348  4%
c i 36.39 280 144 10 1942 31012 102564 120% 9 126597 21347  4%
c i 36.39 280 144 10 1942 31013 102564 120% 9 126597 21346  4%
c i 36.39 280 144 10 1942 31014 102564 120% 9 126597 21338  4%
c i 36.39 280 144 10 1942 31015 102564 120% 9 126597 21337  4%
c 
c  seconds    reductions      redundant    irredundant
c          MB      restarts           trail        variables
c            level      conflicts          glue         remaining
c 
c i 36.39 280 145 10 1942 31016 102564 120% 9 126597 21336  4%
c i 36.39 280 145 10 1942 31017 102564 120% 9 126597 21333  4%
c i 36.39 280 145 10 1942 31018 102564 120% 9 126597 21331  4%
c i 36.39 280 145 10 1942 31019 102564 120% 9 126597 21324  4%
c i 36.39 280 145 10 1942 31020 102564 120% 9 126597 21322  4%
c i 36.39 280 145 10 1942 31021 102564 120% 9 126597 21318  4%
c i 36.39 280 145 10 1942 31022 102564 120% 9 126597 21311  4%
c i 36.39 280 145 10 1942 31023 102564 120% 9 126597 21310  4%
c i 36.39 280 145 10 1942 31024 102564 120% 9 126597 21308  4%
c i 36.39 280 145 10 1942 31025 102564 120% 9 126597 21276  4%
c i 36.39 280 145 10 1942 31026 102564 120% 9 126597 21275  4%
c i 36.39 280 145 10 1942 31027 102564 120% 9 126597 21272  4%
c i 36.39 280 145 10 1942 31028 102564 120% 9 126597 21270  4%
c i 36.39 280 145 10 1942 31029 102564 120% 9 126597 21269  4%
c i 36.39 280 145 10 1942 31030 102564 120% 9 126597 21255  4%
c i 36.39 280 145 10 1942 31031 102564 120% 9 126597 21254  4%
c i 36.39 280 145 10 1942 31032 102564 120% 9 126597 21253  4%
c i 36.39 280 145 10 1942 31033 102564 120% 9 126597 21252  4%
c i 36.39 280 145 10 1942 31034 102564 120% 9 126597 21251  4%
c i 36.39 280 145 10 1942 31035 102564 120% 9 126597 21249  4%
c 
c  seconds    reductions      redundant    irredundant
c          MB      restarts           trail        variables
c            level      conflicts          glue         remaining
c 
c i 36.39 280 145 10 1942 31036 102564 120% 9 126597 21247  4%
c i 36.39 280 146 10 1942 31037 102564 120% 9 126597 21246  4%
c i 36.39 280 146 10 1942 31038 102564 120% 9 126597 21244  4%
c i 36.39 280 146 10 1942 31039 102564 120% 9 126597 21243  4%
c i 36.39 280 146 10 1942 31040 102564 120% 9 126597 21242  4%
c i 36.39 280 146 10 1942 31041 102564 120% 9 126597 21240  4%
c i 36.39 280 146 10 1942 31042 102564 120% 9 126597 21239  4%
c i 36.39 280 146 10 1942 31043 102564 120% 9 126597 21235  4%
c i 36.39 280 146 10 1942 31044 102564 120% 9 126597 21225  4%
c i 36.39 280 146 10 1942 31045 102564 120% 9 126597 21221  4%
c - 36.93 229 159 11 1942 32912 19673 106% 8 125414 21221  4%
c i 37.07 229 150 11 1942 33607 20328 101% 8 125414 21216  4%
c B 37.81 229 126 11 1945 36019 22421 89% 7 125414 21216  4%
c - 38.10 229 122 12 1945 36867 19144 85% 8 125386 21216  4%
c i 38.66 229 113 12 1946 38350 20397 81% 9 125386 20485  4%
c i 38.95 229 109 12 1946 39106 18467 41% 9 119648 20215  4%
c ] 38.95 229 109 12 1947 39113 18469 41% 9 119648 19021  4%
c 0 38.95 229 109 12 1947 39113 18469 41% 9 119648 19021  4%
c 
c --- [ result ] -------------------------------------------------------------
c 
s UNSATISFIABLE
c 
c --- [ run-time profiling ] -------------------------------------------------
c 
c process time taken by individual solving procedures
c (percentage relative to process time for solving)
c 
c        22.81   60.60% search
c        14.83   39.39% simplify
c        13.54   35.97% unstable
c         8.80   23.37% stable
c         6.77   18.00% elim
c         2.45    6.50% vivify
c         1.81    4.81% subsume
c         1.31    3.49% parse
c         1.05    2.78% ternary
c         1.00    2.65% probe
c         0.37    0.97% walk
c         0.11    0.29% lucky
c   =================================
c        37.63   96.63% solve
c 
c last line shows process time for solving
c (percentage relative to total process time)
c 
c --- [ statistics ] ---------------------------------------------------------
c 
c chronological:             15903        40.66 %  of conflicts
c conflicts:                 39113      1039.27    per second
c decisions:                207263      5507.20    per second
c eliminated:               405272        80.17 %  of all variables
c fixed:                     78394        15.51 %  of all variables
c learned:                   36934        94.43 %  per conflict
c learned_lits:            1947943       100.00 %  learned literals
c minimized:                     0         0.00 %  learned literals
c shrunken:                 496932        25.51 %  learned literals
c minishrunken:             376766        19.34 %  learned literals
c otfs:                       1320         3.37 %  of conflict
c propagations:          116094782         3.08 M  per second
c reduced:                   10282        26.29 %  per conflict
c rephased:                      8      4889.12    interval
c restarts:                   1947        20.09    interval
c stabilizing:                   3        46.27 %  of conflicts
c substituted:                2849         0.56 %  of all variables
c subsumed:                 140478         3.35 %  of all clauses
c strengthened:             237686         5.67 %  of all clauses
c ternary:                  277401         2.39 %  of resolved
c trail reuses:                  0         0.00 %  of incremental calls
c vivified:                   1197         0.03 %  of all clauses
c walked:                        1     39113.00    interval
c weakened:                1443927         3.06    average size
c 
c seconds are measured in process time for solving
c 
c --- [ resources ] ----------------------------------------------------------
c 
c total process time since initialization:        38.95    seconds
c total real time since initialization:           38.95    seconds
c maximum resident set size of process:          402.98    MB
c 
c --- [ shutting down ] ------------------------------------------------------
c 
c exit 20
